c FILE:  mr_5.clq
c
c Graph Generator
c
c By: Mauro Roberto (maurorcsc@gmail.com)
c
c Graph Size:5, Clique Size: 2
c Seed:0, Edge Density:  1
c
c Clique Elements are:
c 1 2
c
c Estimated Size of Uncompressed File:   303B
c
p edge 6 8
e 1 3
e 1 2
e 2 5
e 2 6
e 3 4
e 3 5
e 4 5
e 4 6
                                 
